coords = array2d(1..53, 1..2, [821, 400, 707, 297, 94, 202, 527, 751, 989, 296,
    277, 261, 762, 214, 502, 334, 413, 186, 662, 784, 229, 731, 326,
    876, 6, 610, 776, 616, 568, 644, 668, 365, 391, 723, 938, 854,
    941, 187, 692, 120, 299, 889, 26, 20, 337, 728, 261, 21, 827, 734,
    679, 945, 603, 171, 50, 165, 875, 179, 491, 756, 387, 664, 986,
    710, 105, 225, 849, 751, 900, 745, 98, 679, 94, 535, 393, 634,
    368, 488, 477, 111, 872, 106, 86, 273, 100, 900, 759, 797, 544,
    586, 840, 985, 537, 1000, 208, 300, 62, 735, 34, 235, 574, 887,
    418, 353, 43, 755]);

n = 53;

